12 60
0
1
1
1
1
1
1
1
1
1
1
0
1 4 8883
1 6 6368
1 7 2761
1 2 1013
1 10 785
1 9 7673
1 3 6493
1 5 7826
1 11 544
1 8 8923
1 12 3801
4 6 7986
4 7 1549
4 2 2315
4 10 4514
4 9 5350
4 3 7817
4 11 1281
4 8 1677
4 12 1022
6 7 4940
6 10 6826
6 9 3943
6 5 9046
6 11 113
6 8 4134
6 12 5395
7 2 7265
7 10 1278
7 9 7285
7 5 8391
7 11 161
7 8 4
7 12 1151
2 10 1173
2 9 789
2 11 8824
2 12 4017
10 9 4966
10 8 9367
10 12 2939
9 8 5118
9 12 3704
3 6 840
3 7 3785
3 2 8218
3 10 6189
3 9 1601
3 5 5850
3 8 4218
3 12 8974
5 2 789
5 9 1043
5 11 2916
5 8 6186
11 10 1155
11 9 7049
11 8 1580
11 12 4772
8 12 4678
